p cnf 962 2470
51 -2 -696 0
-51 2 0
-51 696 0
52 -51 -697 0
-52 51 0
-52 697 0
53 -698 -696 0
-53 698 0
-53 696 0
54 -53 -699 0
-54 53 0
-54 699 0
55 -700 -701 0
-55 700 0
-55 701 0
56 -702 -6 0
-56 702 0
-56 6 0
57 -56 -703 0
-57 56 0
-57 703 0
58 -704 -55 0
-58 704 0
-58 55 0
59 -705 -9 0
-59 705 0
-59 9 0
60 -59 -706 0
-60 59 0
-60 706 0
61 -707 -58 0
-61 707 0
-61 58 0
62 -12 -1 0
-62 12 0
-62 1 0
63 -62 -13 0
-63 62 0
-63 13 0
64 -708 -61 0
-64 708 0
-64 61 0
65 -14 -697 0
-65 14 0
-65 697 0
66 -65 -706 0
-66 65 0
-66 706 0
67 -709 -64 0
-67 709 0
-67 64 0
68 -16 -15 0
-68 16 0
-68 15 0
69 -68 -17 0
-69 68 0
-69 17 0
70 -710 -67 0
-70 710 0
-70 67 0
71 -18 -12 0
-71 18 0
-71 12 0
72 -71 -19 0
-72 71 0
-72 19 0
73 -711 -70 0
-73 711 0
-73 70 0
74 -712 -20 0
-74 712 0
-74 20 0
75 -74 -22 0
-75 74 0
-75 22 0
76 -713 -73 0
-76 713 0
-76 73 0
77 -714 -715 0
-77 714 0
-77 715 0
78 -77 -25 0
-78 77 0
-78 25 0
79 -716 -76 0
-79 716 0
-79 76 0
80 -26 -702 0
-80 26 0
-80 702 0
81 -80 -27 0
-81 80 0
-81 27 0
82 -717 -79 0
-82 717 0
-82 79 0
83 -22 -718 0
-83 22 0
-83 718 0
84 -83 -697 0
-84 83 0
-84 697 0
85 -719 -82 0
-85 719 0
-85 82 0
86 -28 -1 0
-86 28 0
-86 1 0
87 -86 -11 0
-87 86 0
-87 11 0
88 -720 -85 0
-88 720 0
-88 85 0
89 -15 -6 0
-89 15 0
-89 6 0
90 -89 -721 0
-90 89 0
-90 721 0
91 -722 -88 0
-91 722 0
-91 88 0
92 -723 -718 0
-92 723 0
-92 718 0
93 -92 -4 0
-93 92 0
-93 4 0
94 -724 -91 0
-94 724 0
-94 91 0
95 -725 -726 0
-95 725 0
-95 726 0
96 -95 -727 0
-96 95 0
-96 727 0
97 -728 -94 0
-97 728 0
-97 94 0
98 -25 -14 0
-98 25 0
-98 14 0
99 -98 -699 0
-99 98 0
-99 699 0
100 -729 -97 0
-100 729 0
-100 97 0
101 -730 -698 0
-101 730 0
-101 698 0
102 -101 -28 0
-102 101 0
-102 28 0
103 -731 -100 0
-103 731 0
-103 100 0
104 -33 -732 0
-104 33 0
-104 732 0
105 -104 -34 0
-105 104 0
-105 34 0
106 -733 -103 0
-106 733 0
-106 103 0
107 -35 -734 0
-107 35 0
-107 734 0
108 -107 -4 0
-108 107 0
-108 4 0
109 -735 -106 0
-109 735 0
-109 106 0
110 -36 -26 0
-110 36 0
-110 26 0
111 -110 -34 0
-111 110 0
-111 34 0
112 -736 -109 0
-112 736 0
-112 109 0
113 -37 -36 0
-113 37 0
-113 36 0
114 -113 -737 0
-114 113 0
-114 737 0
115 -738 -112 0
-115 738 0
-115 112 0
116 -28 -739 0
-116 28 0
-116 739 0
117 -116 -705 0
-117 116 0
-117 705 0
118 -740 -115 0
-118 740 0
-118 115 0
119 -741 -38 0
-119 741 0
-119 38 0
120 -119 -40 0
-120 119 0
-120 40 0
121 -742 -118 0
-121 742 0
-121 118 0
122 -35 -743 0
-122 35 0
-122 743 0
123 -122 -41 0
-123 122 0
-123 41 0
124 -744 -121 0
-124 744 0
-124 121 0
125 -745 -739 0
-125 745 0
-125 739 0
126 -125 -699 0
-126 125 0
-126 699 0
127 -746 -124 0
-127 746 0
-127 124 0
128 -12 -697 0
-128 12 0
-128 697 0
129 -128 -747 0
-129 128 0
-129 747 0
130 -748 -127 0
-130 748 0
-130 127 0
131 -715 -16 0
-131 715 0
-131 16 0
132 -131 -11 0
-132 131 0
-132 11 0
133 -749 -130 0
-133 749 0
-133 130 0
134 -750 -739 0
-134 750 0
-134 739 0
135 -134 -20 0
-135 134 0
-135 20 0
136 -751 -133 0
-136 751 0
-136 133 0
137 -43 -730 0
-137 43 0
-137 730 0
138 -137 -752 0
-138 137 0
-138 752 0
139 -753 -136 0
-139 753 0
-139 136 0
140 -732 -12 0
-140 732 0
-140 12 0
141 -140 -20 0
-141 140 0
-141 20 0
142 -754 -139 0
-142 754 0
-142 139 0
143 -755 -9 0
-143 755 0
-143 9 0
144 -143 -34 0
-144 143 0
-144 34 0
145 -756 -142 0
-145 756 0
-145 142 0
146 -757 -721 0
-146 757 0
-146 721 0
147 -146 -10 0
-147 146 0
-147 10 0
148 -758 -145 0
-148 758 0
-148 145 0
149 -21 -2 0
-149 21 0
-149 2 0
150 -149 -5 0
-150 149 0
-150 5 0
151 -759 -148 0
-151 759 0
-151 148 0
152 -760 -30 0
-152 760 0
-152 30 0
153 -152 -19 0
-153 152 0
-153 19 0
154 -761 -151 0
-154 761 0
-154 151 0
155 -723 -27 0
-155 723 0
-155 27 0
156 -155 -11 0
-156 155 0
-156 11 0
157 -762 -154 0
-157 762 0
-157 154 0
158 -763 -24 0
-158 763 0
-158 24 0
159 -158 -764 0
-159 158 0
-159 764 0
160 -765 -157 0
-160 765 0
-160 157 0
161 -37 -721 0
-161 37 0
-161 721 0
162 -161 -5 0
-162 161 0
-162 5 0
163 -766 -160 0
-163 766 0
-163 160 0
164 -43 -723 0
-164 43 0
-164 723 0
165 -164 -764 0
-165 164 0
-165 764 0
166 -767 -163 0
-166 767 0
-166 163 0
167 -760 -715 0
-167 760 0
-167 715 0
168 -167 -768 0
-168 167 0
-168 768 0
169 -769 -166 0
-169 769 0
-169 166 0
170 -750 -696 0
-170 750 0
-170 696 0
171 -170 -16 0
-171 170 0
-171 16 0
172 -770 -169 0
-172 770 0
-172 169 0
173 -14 -13 0
-173 14 0
-173 13 0
174 -173 -745 0
-174 173 0
-174 745 0
175 -771 -172 0
-175 771 0
-175 172 0
176 -743 -2 0
-176 743 0
-176 2 0
177 -176 -698 0
-177 176 0
-177 698 0
178 -772 -175 0
-178 772 0
-178 175 0
179 -773 -715 0
-179 773 0
-179 715 0
180 -179 -774 0
-180 179 0
-180 774 0
181 -775 -178 0
-181 775 0
-181 178 0
182 -29 -6 0
-182 29 0
-182 6 0
183 -182 -42 0
-183 182 0
-183 42 0
184 -776 -181 0
-184 776 0
-184 181 0
185 -732 -777 0
-185 732 0
-185 777 0
186 -185 -763 0
-186 185 0
-186 763 0
187 -778 -184 0
-187 778 0
-187 184 0
188 -24 -16 0
-188 24 0
-188 16 0
189 -188 -703 0
-189 188 0
-189 703 0
190 -779 -187 0
-190 779 0
-190 187 0
191 -780 -723 0
-191 780 0
-191 723 0
192 -191 -752 0
-192 191 0
-192 752 0
193 -781 -190 0
-193 781 0
-193 190 0
194 -47 -2 0
-194 47 0
-194 2 0
195 -194 -42 0
-195 194 0
-195 42 0
196 -782 -193 0
-196 782 0
-196 193 0
197 -23 -9 0
-197 23 0
-197 9 0
198 -197 -32 0
-198 197 0
-198 32 0
199 -783 -196 0
-199 783 0
-199 196 0
200 -777 -784 0
-200 777 0
-200 784 0
201 -200 -699 0
-201 200 0
-201 699 0
202 -785 -199 0
-202 785 0
-202 199 0
203 -727 -20 0
-203 727 0
-203 20 0
204 -203 -786 0
-204 203 0
-204 786 0
205 -787 -202 0
-205 787 0
-205 202 0
206 -788 -784 0
-206 788 0
-206 784 0
207 -206 -34 0
-207 206 0
-207 34 0
208 -789 -205 0
-208 789 0
-208 205 0
209 -24 -718 0
-209 24 0
-209 718 0
210 -209 -752 0
-210 209 0
-210 752 0
211 -790 -208 0
-211 790 0
-211 208 0
212 -95 -5 0
-212 95 0
-212 5 0
213 -791 -211 0
-213 791 0
-213 211 0
214 -792 -8 0
-214 792 0
-214 8 0
215 -214 -11 0
-215 214 0
-215 11 0
216 -793 -213 0
-216 793 0
-216 213 0
217 -48 -42 0
-217 48 0
-217 42 0
218 -217 -706 0
-218 217 0
-218 706 0
219 -794 -216 0
-219 794 0
-219 216 0
220 -22 -795 0
-220 22 0
-220 795 0
221 -220 -699 0
-221 220 0
-221 699 0
222 -796 -219 0
-222 796 0
-222 219 0
223 -77 -755 0
-223 77 0
-223 755 0
224 -797 -222 0
-224 797 0
-224 222 0
225 -12 -8 0
-225 12 0
-225 8 0
226 -225 -36 0
-226 225 0
-226 36 0
227 -798 -224 0
-227 798 0
-227 224 0
228 -752 -745 0
-228 752 0
-228 745 0
229 -228 -45 0
-229 228 0
-229 45 0
230 -799 -227 0
-230 799 0
-230 227 0
231 -732 -712 0
-231 732 0
-231 712 0
232 -231 -49 0
-232 231 0
-232 49 0
233 -800 -230 0
-233 800 0
-233 230 0
234 -33 -13 0
-234 33 0
-234 13 0
235 -234 -4 0
-235 234 0
-235 4 0
236 -801 -233 0
-236 801 0
-236 233 0
237 -714 -20 0
-237 714 0
-237 20 0
238 -237 -752 0
-238 237 0
-238 752 0
239 -802 -236 0
-239 802 0
-239 236 0
240 -699 -739 0
-240 699 0
-240 739 0
241 -240 -27 0
-241 240 0
-241 27 0
242 -803 -239 0
-242 803 0
-242 239 0
243 -15 -726 0
-243 15 0
-243 726 0
244 -243 -780 0
-244 243 0
-244 780 0
245 -804 -242 0
-245 804 0
-245 242 0
246 -43 -734 0
-246 43 0
-246 734 0
247 -246 -48 0
-247 246 0
-247 48 0
248 -805 -245 0
-248 805 0
-248 245 0
249 -18 -745 0
-249 18 0
-249 745 0
250 -249 -750 0
-250 249 0
-250 750 0
251 -806 -248 0
-251 806 0
-251 248 0
252 -42 -747 0
-252 42 0
-252 747 0
253 -252 -11 0
-253 252 0
-253 11 0
254 -807 -251 0
-254 807 0
-254 251 0
255 -16 -703 0
-255 16 0
-255 703 0
256 -255 -712 0
-256 255 0
-256 712 0
257 -808 -254 0
-257 808 0
-257 254 0
258 -26 -734 0
-258 26 0
-258 734 0
259 -258 -25 0
-259 258 0
-259 25 0
260 -809 -257 0
-260 809 0
-260 257 0
261 -47 -42 0
-261 47 0
-261 42 0
262 -261 -3 0
-262 261 0
-262 3 0
263 -810 -260 0
-263 810 0
-263 260 0
264 -29 -27 0
-264 29 0
-264 27 0
265 -264 -11 0
-265 264 0
-265 11 0
266 -811 -263 0
-266 811 0
-266 263 0
267 -47 -18 0
-267 47 0
-267 18 0
268 -267 -727 0
-268 267 0
-268 727 0
269 -812 -266 0
-269 812 0
-269 266 0
270 -36 -25 0
-270 36 0
-270 25 0
271 -270 -50 0
-271 270 0
-271 50 0
272 -813 -269 0
-272 813 0
-272 269 0
273 -755 -784 0
-273 755 0
-273 784 0
274 -273 -792 0
-274 273 0
-274 792 0
275 -814 -272 0
-275 814 0
-275 272 0
276 -44 -723 0
-276 44 0
-276 723 0
277 -276 -757 0
-277 276 0
-277 757 0
278 -815 -275 0
-278 815 0
-278 275 0
279 -725 -698 0
-279 725 0
-279 698 0
280 -279 -10 0
-280 279 0
-280 10 0
281 -816 -278 0
-281 816 0
-281 278 0
282 -817 -703 0
-282 817 0
-282 703 0
283 -282 -699 0
-283 282 0
-283 699 0
284 -818 -281 0
-284 818 0
-284 281 0
285 -35 -17 0
-285 35 0
-285 17 0
286 -285 -48 0
-286 285 0
-286 48 0
287 -819 -284 0
-287 819 0
-287 284 0
288 -31 -16 0
-288 31 0
-288 16 0
289 -288 -28 0
-289 288 0
-289 28 0
290 -820 -287 0
-290 820 0
-290 287 0
291 -768 -821 0
-291 768 0
-291 821 0
292 -291 -792 0
-292 291 0
-292 792 0
293 -822 -290 0
-293 822 0
-293 290 0
294 -723 -734 0
-294 723 0
-294 734 0
295 -294 -2 0
-295 294 0
-295 2 0
296 -823 -293 0
-296 823 0
-296 293 0
297 -817 -768 0
-297 817 0
-297 768 0
298 -297 -706 0
-298 297 0
-298 706 0
299 -824 -296 0
-299 824 0
-299 296 0
300 -38 -725 0
-300 38 0
-300 725 0
301 -300 -825 0
-301 300 0
-301 825 0
302 -826 -299 0
-302 826 0
-302 299 0
303 -741 -18 0
-303 741 0
-303 18 0
304 -303 -3 0
-304 303 0
-304 3 0
305 -827 -302 0
-305 827 0
-305 302 0
306 -43 -725 0
-306 43 0
-306 725 0
307 -306 -764 0
-307 306 0
-307 764 0
308 -828 -305 0
-308 828 0
-308 305 0
309 -41 -36 0
-309 41 0
-309 36 0
310 -309 -48 0
-310 309 0
-310 48 0
311 -829 -308 0
-311 829 0
-311 308 0
312 -39 -795 0
-312 39 0
-312 795 0
313 -312 -41 0
-313 312 0
-313 41 0
314 -830 -311 0
-314 830 0
-314 311 0
315 -763 -6 0
-315 763 0
-315 6 0
316 -315 -21 0
-316 315 0
-316 21 0
317 -831 -314 0
-317 831 0
-317 314 0
318 -35 -821 0
-318 35 0
-318 821 0
319 -318 -737 0
-319 318 0
-319 737 0
320 -832 -317 0
-320 832 0
-320 317 0
321 -16 -7 0
-321 16 0
-321 7 0
322 -321 -833 0
-322 321 0
-322 833 0
323 -834 -320 0
-323 834 0
-323 320 0
324 -703 -739 0
-324 703 0
-324 739 0
325 -324 -752 0
-325 324 0
-325 752 0
326 -835 -323 0
-326 835 0
-326 323 0
327 -39 -35 0
-327 39 0
-327 35 0
328 -327 -45 0
-328 327 0
-328 45 0
329 -836 -326 0
-329 836 0
-329 326 0
330 -35 -730 0
-330 35 0
-330 730 0
331 -330 -41 0
-331 330 0
-331 41 0
332 -837 -329 0
-332 837 0
-332 329 0
333 -718 -743 0
-333 718 0
-333 743 0
334 -333 -16 0
-334 333 0
-334 16 0
335 -838 -332 0
-335 838 0
-335 332 0
336 -50 -15 0
-336 50 0
-336 15 0
337 -336 -752 0
-337 336 0
-337 752 0
338 -839 -335 0
-338 839 0
-338 335 0
339 -786 -732 0
-339 786 0
-339 732 0
340 -339 -757 0
-340 339 0
-340 757 0
341 -840 -338 0
-341 840 0
-341 338 0
342 -721 -702 0
-342 721 0
-342 702 0
343 -342 -45 0
-343 342 0
-343 45 0
344 -841 -341 0
-344 841 0
-344 341 0
345 -47 -784 0
-345 47 0
-345 784 0
346 -345 -49 0
-346 345 0
-346 49 0
347 -842 -344 0
-347 842 0
-347 344 0
348 -792 -757 0
-348 792 0
-348 757 0
349 -348 -706 0
-349 348 0
-349 706 0
350 -843 -347 0
-350 843 0
-350 347 0
351 -763 -726 0
-351 763 0
-351 726 0
352 -351 -11 0
-352 351 0
-352 11 0
353 -844 -350 0
-353 844 0
-353 350 0
354 -715 -821 0
-354 715 0
-354 821 0
355 -354 -752 0
-355 354 0
-355 752 0
356 -845 -353 0
-356 845 0
-356 353 0
357 -825 -30 0
-357 825 0
-357 30 0
358 -357 -50 0
-358 357 0
-358 50 0
359 -846 -356 0
-359 846 0
-359 356 0
360 -23 -696 0
-360 23 0
-360 696 0
361 -360 -712 0
-361 360 0
-361 712 0
362 -847 -359 0
-362 847 0
-362 359 0
363 -32 -745 0
-363 32 0
-363 745 0
364 -363 -39 0
-364 363 0
-364 39 0
365 -848 -362 0
-365 848 0
-365 362 0
366 -768 -17 0
-366 768 0
-366 17 0
367 -366 -757 0
-367 366 0
-367 757 0
368 -849 -365 0
-368 849 0
-368 365 0
369 -33 -774 0
-369 33 0
-369 774 0
370 -369 -41 0
-370 369 0
-370 41 0
371 -850 -368 0
-371 850 0
-371 368 0
372 -817 -745 0
-372 817 0
-372 745 0
373 -372 -851 0
-373 372 0
-373 851 0
374 -852 -371 0
-374 852 0
-374 371 0
375 -853 -7 0
-375 853 0
-375 7 0
376 -375 -705 0
-376 375 0
-376 705 0
377 -854 -374 0
-377 854 0
-377 374 0
378 -768 -712 0
-378 768 0
-378 712 0
379 -378 -699 0
-379 378 0
-379 699 0
380 -855 -377 0
-380 855 0
-380 377 0
381 -357 -833 0
-381 357 0
-381 833 0
382 -856 -380 0
-382 856 0
-382 380 0
383 -718 -15 0
-383 718 0
-383 15 0
384 -383 -31 0
-384 383 0
-384 31 0
385 -857 -382 0
-385 857 0
-385 382 0
386 -30 -723 0
-386 30 0
-386 723 0
387 -386 -41 0
-387 386 0
-387 41 0
388 -858 -385 0
-388 858 0
-388 385 0
389 -47 -25 0
-389 47 0
-389 25 0
390 -389 -34 0
-390 389 0
-390 34 0
391 -859 -388 0
-391 859 0
-391 388 0
392 -39 -2 0
-392 39 0
-392 2 0
393 -392 -851 0
-393 392 0
-393 851 0
394 -860 -391 0
-394 860 0
-394 391 0
395 -741 -7 0
-395 741 0
-395 7 0
396 -395 -727 0
-396 395 0
-396 727 0
397 -861 -394 0
-397 861 0
-397 394 0
398 -718 -726 0
-398 718 0
-398 726 0
399 -398 -49 0
-399 398 0
-399 49 0
400 -862 -397 0
-400 862 0
-400 397 0
401 -817 -9 0
-401 817 0
-401 9 0
402 -401 -27 0
-402 401 0
-402 27 0
403 -863 -400 0
-403 863 0
-403 400 0
404 -44 -777 0
-404 44 0
-404 777 0
405 -404 -792 0
-405 404 0
-405 792 0
406 -864 -403 0
-406 864 0
-406 403 0
407 -2 -1 0
-407 2 0
-407 1 0
408 -407 -750 0
-408 407 0
-408 750 0
409 -865 -406 0
-409 865 0
-409 406 0
410 -47 -46 0
-410 47 0
-410 46 0
411 -410 -20 0
-411 410 0
-411 20 0
412 -866 -409 0
-412 866 0
-412 409 0
413 -38 -13 0
-413 38 0
-413 13 0
414 -413 -697 0
-414 413 0
-414 697 0
415 -867 -412 0
-415 867 0
-415 412 0
416 -255 -17 0
-416 255 0
-416 17 0
417 -868 -415 0
-417 868 0
-417 415 0
418 -727 -739 0
-418 727 0
-418 739 0
419 -418 -792 0
-419 418 0
-419 792 0
420 -869 -417 0
-420 869 0
-420 417 0
421 -9 -702 0
-421 9 0
-421 702 0
422 -421 -747 0
-422 421 0
-422 747 0
423 -870 -420 0
-423 870 0
-423 420 0
424 -732 -702 0
-424 732 0
-424 702 0
425 -424 -780 0
-425 424 0
-425 780 0
426 -871 -423 0
-426 871 0
-426 423 0
427 -29 -714 0
-427 29 0
-427 714 0
428 -427 -41 0
-428 427 0
-428 41 0
429 -872 -426 0
-429 872 0
-429 426 0
430 -795 -1 0
-430 795 0
-430 1 0
431 -430 -745 0
-431 430 0
-431 745 0
432 -873 -429 0
-432 873 0
-432 429 0
433 -737 -697 0
-433 737 0
-433 697 0
434 -433 -747 0
-434 433 0
-434 747 0
435 -874 -432 0
-435 874 0
-435 432 0
436 -49 -26 0
-436 49 0
-436 26 0
437 -436 -17 0
-437 436 0
-437 17 0
438 -875 -435 0
-438 875 0
-438 435 0
439 -19 -821 0
-439 19 0
-439 821 0
440 -439 -747 0
-440 439 0
-440 747 0
441 -876 -438 0
-441 876 0
-441 438 0
442 -137 -49 0
-442 137 0
-442 49 0
443 -877 -441 0
-443 877 0
-443 441 0
444 -9 -2 0
-444 9 0
-444 2 0
445 -444 -730 0
-445 444 0
-445 730 0
446 -878 -443 0
-446 878 0
-446 443 0
447 -42 -702 0
-447 42 0
-447 702 0
448 -447 -21 0
-448 447 0
-448 21 0
449 -879 -446 0
-449 879 0
-449 446 0
450 -786 -768 0
-450 786 0
-450 768 0
451 -450 -11 0
-451 450 0
-451 11 0
452 -880 -449 0
-452 880 0
-452 449 0
453 -38 -24 0
-453 38 0
-453 24 0
454 -453 -49 0
-454 453 0
-454 49 0
455 -881 -452 0
-455 881 0
-455 452 0
456 -755 -853 0
-456 755 0
-456 853 0
457 -456 -727 0
-457 456 0
-457 727 0
458 -882 -455 0
-458 882 0
-458 455 0
459 -760 -741 0
-459 760 0
-459 741 0
460 -459 -851 0
-460 459 0
-460 851 0
461 -883 -458 0
-461 883 0
-461 458 0
462 -788 -768 0
-462 788 0
-462 768 0
463 -462 -45 0
-463 462 0
-463 45 0
464 -884 -461 0
-464 884 0
-464 461 0
465 -725 -16 0
-465 725 0
-465 16 0
466 -465 -752 0
-466 465 0
-466 752 0
467 -885 -464 0
-467 885 0
-467 464 0
468 -825 -29 0
-468 825 0
-468 29 0
469 -468 -45 0
-469 468 0
-469 45 0
470 -886 -467 0
-470 886 0
-470 467 0
471 -732 -696 0
-471 732 0
-471 696 0
472 -471 -40 0
-472 471 0
-472 40 0
473 -887 -470 0
-473 887 0
-473 470 0
474 -723 -18 0
-474 723 0
-474 18 0
475 -474 -697 0
-475 474 0
-475 697 0
476 -888 -473 0
-476 888 0
-476 473 0
477 -773 -768 0
-477 773 0
-477 768 0
478 -477 -27 0
-478 477 0
-478 27 0
479 -889 -476 0
-479 889 0
-479 476 0
480 -715 -743 0
-480 715 0
-480 743 0
481 -480 -34 0
-481 480 0
-481 34 0
482 -890 -479 0
-482 890 0
-482 479 0
483 -47 -739 0
-483 47 0
-483 739 0
484 -483 -747 0
-484 483 0
-484 747 0
485 -891 -482 0
-485 891 0
-485 482 0
486 -38 -817 0
-486 38 0
-486 817 0
487 -486 -50 0
-487 486 0
-487 50 0
488 -892 -485 0
-488 892 0
-488 485 0
489 -33 -739 0
-489 33 0
-489 739 0
490 -489 -706 0
-490 489 0
-490 706 0
491 -893 -488 0
-491 893 0
-491 488 0
492 -42 -725 0
-492 42 0
-492 725 0
493 -492 -39 0
-493 492 0
-493 39 0
494 -894 -491 0
-494 894 0
-494 491 0
495 -39 -697 0
-495 39 0
-495 697 0
496 -495 -792 0
-496 495 0
-496 792 0
497 -895 -494 0
-497 895 0
-497 494 0
498 -732 -25 0
-498 732 0
-498 25 0
499 -498 -36 0
-499 498 0
-499 36 0
500 -896 -497 0
-500 896 0
-500 497 0
501 -760 -784 0
-501 760 0
-501 784 0
502 -501 -34 0
-502 501 0
-502 34 0
503 -897 -500 0
-503 897 0
-503 500 0
504 -14 -774 0
-504 14 0
-504 774 0
505 -504 -821 0
-505 504 0
-505 821 0
506 -898 -503 0
-506 898 0
-506 503 0
507 -38 -718 0
-507 38 0
-507 718 0
508 -507 -780 0
-508 507 0
-508 780 0
509 -899 -506 0
-509 899 0
-509 506 0
510 -39 -698 0
-510 39 0
-510 698 0
511 -510 -27 0
-511 510 0
-511 27 0
512 -900 -509 0
-512 900 0
-512 509 0
513 -726 -697 0
-513 726 0
-513 697 0
514 -513 -792 0
-514 513 0
-514 792 0
515 -901 -512 0
-515 901 0
-515 512 0
516 -32 -702 0
-516 32 0
-516 702 0
517 -516 -752 0
-517 516 0
-517 752 0
518 -902 -515 0
-518 902 0
-518 515 0
519 -737 -784 0
-519 737 0
-519 784 0
520 -519 -40 0
-520 519 0
-520 40 0
521 -903 -518 0
-521 903 0
-521 518 0
522 -38 -1 0
-522 38 0
-522 1 0
523 -522 -37 0
-523 522 0
-523 37 0
524 -904 -521 0
-524 904 0
-524 521 0
525 -786 -739 0
-525 786 0
-525 739 0
526 -525 -28 0
-526 525 0
-526 28 0
527 -905 -524 0
-527 905 0
-527 524 0
528 -755 -777 0
-528 755 0
-528 777 0
529 -528 -17 0
-529 528 0
-529 17 0
530 -906 -527 0
-530 906 0
-530 527 0
531 -750 -12 0
-531 750 0
-531 12 0
532 -531 -699 0
-532 531 0
-532 699 0
533 -907 -530 0
-533 907 0
-533 530 0
534 -726 -12 0
-534 726 0
-534 12 0
535 -534 -44 0
-535 534 0
-535 44 0
536 -908 -533 0
-536 908 0
-536 533 0
537 -741 -703 0
-537 741 0
-537 703 0
538 -537 -706 0
-538 537 0
-538 706 0
539 -909 -536 0
-539 909 0
-539 536 0
540 -792 -15 0
-540 792 0
-540 15 0
541 -540 -705 0
-541 540 0
-541 705 0
542 -910 -539 0
-542 910 0
-542 539 0
543 -851 -33 0
-543 851 0
-543 33 0
544 -543 -752 0
-544 543 0
-544 752 0
545 -911 -542 0
-545 911 0
-545 542 0
546 -42 -734 0
-546 42 0
-546 734 0
547 -546 -48 0
-547 546 0
-547 48 0
548 -912 -545 0
-548 912 0
-548 545 0
549 -15 -3 0
-549 15 0
-549 3 0
550 -549 -40 0
-550 549 0
-550 40 0
551 -913 -548 0
-551 913 0
-551 548 0
552 -788 -714 0
-552 788 0
-552 714 0
553 -552 -697 0
-553 552 0
-553 697 0
554 -914 -551 0
-554 914 0
-554 551 0
555 -15 -739 0
-555 15 0
-555 739 0
556 -555 -730 0
-556 555 0
-556 730 0
557 -915 -554 0
-557 915 0
-557 554 0
558 -50 -10 0
-558 50 0
-558 10 0
559 -558 -706 0
-559 558 0
-559 706 0
560 -916 -557 0
-560 916 0
-560 557 0
561 -727 -22 0
-561 727 0
-561 22 0
562 -561 -17 0
-562 561 0
-562 17 0
563 -917 -560 0
-563 917 0
-563 560 0
564 -730 -739 0
-564 730 0
-564 739 0
565 -564 -757 0
-565 564 0
-565 757 0
566 -918 -563 0
-566 918 0
-566 563 0
567 -732 -17 0
-567 732 0
-567 17 0
568 -567 -757 0
-568 567 0
-568 757 0
569 -919 -566 0
-569 919 0
-569 566 0
570 -30 -2 0
-570 30 0
-570 2 0
571 -570 -50 0
-571 570 0
-571 50 0
572 -920 -569 0
-572 920 0
-572 569 0
573 -825 -725 0
-573 825 0
-573 725 0
574 -573 -833 0
-574 573 0
-574 833 0
575 -921 -572 0
-575 921 0
-575 572 0
576 -721 -14 0
-576 721 0
-576 14 0
577 -576 -45 0
-577 576 0
-577 45 0
578 -922 -575 0
-578 922 0
-578 575 0
579 -321 -792 0
-579 321 0
-579 792 0
580 -923 -578 0
-580 923 0
-580 578 0
581 -760 -38 0
-581 760 0
-581 38 0
582 -581 -41 0
-582 581 0
-582 41 0
583 -924 -580 0
-583 924 0
-583 580 0
584 -750 -23 0
-584 750 0
-584 23 0
585 -584 -786 0
-585 584 0
-585 786 0
586 -925 -583 0
-586 925 0
-586 583 0
587 -763 -39 0
-587 763 0
-587 39 0
588 -587 -20 0
-588 587 0
-588 20 0
589 -926 -586 0
-589 926 0
-589 586 0
590 -18 -764 0
-590 18 0
-590 764 0
591 -590 -747 0
-591 590 0
-591 747 0
592 -927 -589 0
-592 927 0
-592 589 0
593 -727 -730 0
-593 727 0
-593 730 0
594 -593 -788 0
-594 593 0
-594 788 0
595 -928 -592 0
-595 928 0
-595 592 0
596 -788 -31 0
-596 788 0
-596 31 0
597 -596 -40 0
-597 596 0
-597 40 0
598 -929 -595 0
-598 929 0
-598 595 0
599 -37 -825 0
-599 37 0
-599 825 0
600 -599 -22 0
-600 599 0
-600 22 0
601 -930 -598 0
-601 930 0
-601 598 0
602 -12 -7 0
-602 12 0
-602 7 0
603 -602 -721 0
-603 602 0
-603 721 0
604 -931 -601 0
-604 931 0
-604 601 0
605 -817 -696 0
-605 817 0
-605 696 0
606 -605 -741 0
-606 605 0
-606 741 0
607 -932 -604 0
-607 932 0
-607 604 0
608 -734 -1 0
-608 734 0
-608 1 0
609 -608 -833 0
-609 608 0
-609 833 0
610 -933 -607 0
-610 933 0
-610 607 0
611 -715 -3 0
-611 715 0
-611 3 0
612 -611 -10 0
-612 611 0
-612 10 0
613 -934 -610 0
-613 934 0
-613 610 0
614 -825 -745 0
-614 825 0
-614 745 0
615 -614 -22 0
-615 614 0
-615 22 0
616 -935 -613 0
-616 935 0
-616 613 0
617 -50 -26 0
-617 50 0
-617 26 0
618 -617 -40 0
-618 617 0
-618 40 0
619 -936 -616 0
-619 936 0
-619 616 0
620 -68 -792 0
-620 68 0
-620 792 0
621 -937 -619 0
-621 937 0
-621 619 0
622 -723 -13 0
-622 723 0
-622 13 0
623 -622 -37 0
-623 622 0
-623 37 0
624 -938 -621 0
-624 938 0
-624 621 0
625 -31 -795 0
-625 31 0
-625 795 0
626 -625 -17 0
-626 625 0
-626 17 0
627 -939 -624 0
-627 939 0
-627 624 0
628 -37 -764 0
-628 37 0
-628 764 0
629 -628 -792 0
-629 628 0
-629 792 0
630 -940 -627 0
-630 940 0
-630 627 0
631 -34 -725 0
-631 34 0
-631 725 0
632 -631 -747 0
-632 631 0
-632 747 0
633 -941 -630 0
-633 941 0
-633 630 0
634 -107 -743 0
-634 107 0
-634 743 0
635 -942 -633 0
-635 942 0
-635 633 0
636 -795 -743 0
-636 795 0
-636 743 0
637 -636 -21 0
-637 636 0
-637 21 0
638 -943 -635 0
-638 943 0
-638 635 0
639 -38 -743 0
-639 38 0
-639 743 0
640 -639 -697 0
-640 639 0
-640 697 0
641 -944 -638 0
-641 944 0
-641 638 0
642 -792 -737 0
-642 792 0
-642 737 0
643 -642 -11 0
-643 642 0
-643 11 0
644 -945 -641 0
-644 945 0
-644 641 0
645 -39 -732 0
-645 39 0
-645 732 0
646 -645 -727 0
-646 645 0
-646 727 0
647 -946 -644 0
-647 946 0
-647 644 0
648 -47 -6 0
-648 47 0
-648 6 0
649 -648 -31 0
-649 648 0
-649 31 0
650 -947 -647 0
-650 947 0
-650 647 0
651 -788 -833 0
-651 788 0
-651 833 0
652 -651 -705 0
-652 651 0
-652 705 0
653 -948 -650 0
-653 948 0
-653 650 0
654 -784 -2 0
-654 784 0
-654 2 0
655 -654 -699 0
-655 654 0
-655 699 0
656 -949 -653 0
-656 949 0
-656 653 0
657 -32 -19 0
-657 32 0
-657 19 0
658 -657 -49 0
-658 657 0
-658 49 0
659 -950 -656 0
-659 950 0
-659 656 0
660 -32 -723 0
-660 32 0
-660 723 0
661 -660 -786 0
-661 660 0
-661 786 0
662 -951 -659 0
-662 951 0
-662 659 0
663 -24 -745 0
-663 24 0
-663 745 0
664 -663 -718 0
-664 663 0
-664 718 0
665 -952 -662 0
-665 952 0
-665 662 0
666 -26 -718 0
-666 26 0
-666 718 0
667 -666 -768 0
-667 666 0
-667 768 0
668 -953 -665 0
-668 953 0
-668 665 0
669 -42 -780 0
-669 42 0
-669 780 0
670 -669 -792 0
-670 669 0
-670 792 0
671 -954 -668 0
-671 954 0
-671 668 0
672 -741 -725 0
-672 741 0
-672 725 0
673 -672 -712 0
-673 672 0
-673 712 0
674 -955 -671 0
-674 955 0
-674 671 0
675 -760 -795 0
-675 760 0
-675 795 0
676 -675 -50 0
-676 675 0
-676 50 0
677 -956 -674 0
-677 956 0
-677 674 0
678 -743 -774 0
-678 743 0
-678 774 0
679 -678 -7 0
-679 678 0
-679 7 0
680 -957 -677 0
-680 957 0
-680 677 0
681 -795 -696 0
-681 795 0
-681 696 0
682 -681 -2 0
-682 681 0
-682 2 0
683 -958 -680 0
-683 958 0
-683 680 0
684 -774 -705 0
-684 774 0
-684 705 0
685 -684 -11 0
-685 684 0
-685 11 0
686 -959 -683 0
-686 959 0
-686 683 0
687 -25 -698 0
-687 25 0
-687 698 0
688 -687 -737 0
-688 687 0
-688 737 0
689 -960 -686 0
-689 960 0
-689 686 0
690 -774 -784 0
-690 774 0
-690 784 0
691 -690 -763 0
-691 690 0
-691 763 0
692 -961 -689 0
-692 961 0
-692 689 0
693 -48 -763 0
-693 48 0
-693 763 0
694 -693 -747 0
-694 693 0
-694 747 0
695 -962 -692 0
-695 962 0
-695 692 0
-696 -1 0
696 1 0
-697 -3 0
697 3 0
-698 -4 0
698 4 0
-699 -5 0
699 5 0
-700 -54 0
700 54 0
-701 -52 0
701 52 0
-702 -7 0
702 7 0
-703 -8 0
703 8 0
-704 -57 0
704 57 0
-705 -10 0
705 10 0
-706 -11 0
706 11 0
-707 -60 0
707 60 0
-708 -63 0
708 63 0
-709 -66 0
709 66 0
-710 -69 0
710 69 0
-711 -72 0
711 72 0
-712 -21 0
712 21 0
-713 -75 0
713 75 0
-714 -24 0
714 24 0
-715 -23 0
715 23 0
-716 -78 0
716 78 0
-717 -81 0
717 81 0
-718 -19 0
718 19 0
-719 -84 0
719 84 0
-720 -87 0
720 87 0
-721 -20 0
721 20 0
-722 -90 0
722 90 0
-723 -29 0
723 29 0
-724 -93 0
724 93 0
-725 -30 0
725 30 0
-726 -14 0
726 14 0
-727 -31 0
727 31 0
-728 -96 0
728 96 0
-729 -99 0
729 99 0
-730 -25 0
730 25 0
-731 -102 0
731 102 0
-732 -32 0
732 32 0
-733 -105 0
733 105 0
-734 -12 0
734 12 0
-735 -108 0
735 108 0
-736 -111 0
736 111 0
-737 -28 0
737 28 0
-738 -114 0
738 114 0
-739 -2 0
739 2 0
-740 -117 0
740 117 0
-741 -39 0
741 39 0
-742 -120 0
742 120 0
-743 -15 0
743 15 0
-744 -123 0
744 123 0
-745 -6 0
745 6 0
-746 -126 0
746 126 0
-747 -40 0
747 40 0
-748 -129 0
748 129 0
-749 -132 0
749 132 0
-750 -42 0
750 42 0
-751 -135 0
751 135 0
-752 -44 0
752 44 0
-753 -138 0
753 138 0
-754 -141 0
754 141 0
-755 -38 0
755 38 0
-756 -144 0
756 144 0
-757 -45 0
757 45 0
-758 -147 0
758 147 0
-759 -150 0
759 150 0
-760 -43 0
760 43 0
-761 -153 0
761 153 0
-762 -156 0
762 156 0
-763 -46 0
763 46 0
-764 -16 0
764 16 0
-765 -159 0
765 159 0
-766 -162 0
766 162 0
-767 -165 0
767 165 0
-768 -22 0
768 22 0
-769 -168 0
769 168 0
-770 -171 0
770 171 0
-771 -174 0
771 174 0
-772 -177 0
772 177 0
-773 -47 0
773 47 0
-774 -13 0
774 13 0
-775 -180 0
775 180 0
-776 -183 0
776 183 0
-777 -26 0
777 26 0
-778 -186 0
778 186 0
-779 -189 0
779 189 0
-780 -41 0
780 41 0
-781 -192 0
781 192 0
-782 -195 0
782 195 0
-783 -198 0
783 198 0
-784 -9 0
784 9 0
-785 -201 0
785 201 0
-786 -34 0
786 34 0
-787 -204 0
787 204 0
-788 -37 0
788 37 0
-789 -207 0
789 207 0
-790 -210 0
790 210 0
-791 -212 0
791 212 0
-792 -48 0
792 48 0
-793 -215 0
793 215 0
-794 -218 0
794 218 0
-795 -18 0
795 18 0
-796 -221 0
796 221 0
-797 -223 0
797 223 0
-798 -226 0
798 226 0
-799 -229 0
799 229 0
-800 -232 0
800 232 0
-801 -235 0
801 235 0
-802 -238 0
802 238 0
-803 -241 0
803 241 0
-804 -244 0
804 244 0
-805 -247 0
805 247 0
-806 -250 0
806 250 0
-807 -253 0
807 253 0
-808 -256 0
808 256 0
-809 -259 0
809 259 0
-810 -262 0
810 262 0
-811 -265 0
811 265 0
-812 -268 0
812 268 0
-813 -271 0
813 271 0
-814 -274 0
814 274 0
-815 -277 0
815 277 0
-816 -280 0
816 280 0
-817 -33 0
817 33 0
-818 -283 0
818 283 0
-819 -286 0
819 286 0
-820 -289 0
820 289 0
-821 -17 0
821 17 0
-822 -292 0
822 292 0
-823 -295 0
823 295 0
-824 -298 0
824 298 0
-825 -36 0
825 36 0
-826 -301 0
826 301 0
-827 -304 0
827 304 0
-828 -307 0
828 307 0
-829 -310 0
829 310 0
-830 -313 0
830 313 0
-831 -316 0
831 316 0
-832 -319 0
832 319 0
-833 -27 0
833 27 0
-834 -322 0
834 322 0
-835 -325 0
835 325 0
-836 -328 0
836 328 0
-837 -331 0
837 331 0
-838 -334 0
838 334 0
-839 -337 0
839 337 0
-840 -340 0
840 340 0
-841 -343 0
841 343 0
-842 -346 0
842 346 0
-843 -349 0
843 349 0
-844 -352 0
844 352 0
-845 -355 0
845 355 0
-846 -358 0
846 358 0
-847 -361 0
847 361 0
-848 -364 0
848 364 0
-849 -367 0
849 367 0
-850 -370 0
850 370 0
-851 -49 0
851 49 0
-852 -373 0
852 373 0
-853 -35 0
853 35 0
-854 -376 0
854 376 0
-855 -379 0
855 379 0
-856 -381 0
856 381 0
-857 -384 0
857 384 0
-858 -387 0
858 387 0
-859 -390 0
859 390 0
-860 -393 0
860 393 0
-861 -396 0
861 396 0
-862 -399 0
862 399 0
-863 -402 0
863 402 0
-864 -405 0
864 405 0
-865 -408 0
865 408 0
-866 -411 0
866 411 0
-867 -414 0
867 414 0
-868 -416 0
868 416 0
-869 -419 0
869 419 0
-870 -422 0
870 422 0
-871 -425 0
871 425 0
-872 -428 0
872 428 0
-873 -431 0
873 431 0
-874 -434 0
874 434 0
-875 -437 0
875 437 0
-876 -440 0
876 440 0
-877 -442 0
877 442 0
-878 -445 0
878 445 0
-879 -448 0
879 448 0
-880 -451 0
880 451 0
-881 -454 0
881 454 0
-882 -457 0
882 457 0
-883 -460 0
883 460 0
-884 -463 0
884 463 0
-885 -466 0
885 466 0
-886 -469 0
886 469 0
-887 -472 0
887 472 0
-888 -475 0
888 475 0
-889 -478 0
889 478 0
-890 -481 0
890 481 0
-891 -484 0
891 484 0
-892 -487 0
892 487 0
-893 -490 0
893 490 0
-894 -493 0
894 493 0
-895 -496 0
895 496 0
-896 -499 0
896 499 0
-897 -502 0
897 502 0
-898 -505 0
898 505 0
-899 -508 0
899 508 0
-900 -511 0
900 511 0
-901 -514 0
901 514 0
-902 -517 0
902 517 0
-903 -520 0
903 520 0
-904 -523 0
904 523 0
-905 -526 0
905 526 0
-906 -529 0
906 529 0
-907 -532 0
907 532 0
-908 -535 0
908 535 0
-909 -538 0
909 538 0
-910 -541 0
910 541 0
-911 -544 0
911 544 0
-912 -547 0
912 547 0
-913 -550 0
913 550 0
-914 -553 0
914 553 0
-915 -556 0
915 556 0
-916 -559 0
916 559 0
-917 -562 0
917 562 0
-918 -565 0
918 565 0
-919 -568 0
919 568 0
-920 -571 0
920 571 0
-921 -574 0
921 574 0
-922 -577 0
922 577 0
-923 -579 0
923 579 0
-924 -582 0
924 582 0
-925 -585 0
925 585 0
-926 -588 0
926 588 0
-927 -591 0
927 591 0
-928 -594 0
928 594 0
-929 -597 0
929 597 0
-930 -600 0
930 600 0
-931 -603 0
931 603 0
-932 -606 0
932 606 0
-933 -609 0
933 609 0
-934 -612 0
934 612 0
-935 -615 0
935 615 0
-936 -618 0
936 618 0
-937 -620 0
937 620 0
-938 -623 0
938 623 0
-939 -626 0
939 626 0
-940 -629 0
940 629 0
-941 -632 0
941 632 0
-942 -634 0
942 634 0
-943 -637 0
943 637 0
-944 -640 0
944 640 0
-945 -643 0
945 643 0
-946 -646 0
946 646 0
-947 -649 0
947 649 0
-948 -652 0
948 652 0
-949 -655 0
949 655 0
-950 -658 0
950 658 0
-951 -661 0
951 661 0
-952 -664 0
952 664 0
-953 -667 0
953 667 0
-954 -670 0
954 670 0
-955 -673 0
955 673 0
-956 -676 0
956 676 0
-957 -679 0
957 679 0
-958 -682 0
958 682 0
-959 -685 0
959 685 0
-960 -688 0
960 688 0
-961 -691 0
961 691 0
-962 -694 0
962 694 0
695 0
